(set-info :smt-lib-version 2.6)
(set-logic QF_ALIA)
(set-info :notes "Adapted for Array Sum evaluation.
Base file: qlock.induction.11.smt2")
(set-info :source |
Unbounded version of the queue lock algorithm.
|)
(set-info :category "industrial")
(declare-fun x_0 () (Array Int Int))
(declare-fun x_1 () Int)
(declare-fun x_2 () Int)
(declare-fun x_3 () (Array Int Int))
(declare-fun x_4 () (Array Int Int))
(declare-fun x_5 () (Array Int Int))
(declare-fun x_6 () (Array Int Int))
(declare-fun x_7 () (Array Int Int))
(declare-fun x_8 () (Array Int Int))
(declare-fun x_9 () (Array Int Int))
(declare-fun x_10 () (Array Int Int))
(declare-fun x_11 () (Array Int Int))
(declare-fun x_12 () (Array Int Int))
(declare-fun x_13 () (Array Int Int))
(declare-fun x_14 () Int)
(declare-fun x_15 () Int)
(declare-fun x_16 () (Array Int Int))
(declare-fun x_17 () Int)
(declare-fun x_18 () Bool)
(declare-fun x_19 () Bool)
(declare-fun x_20 () Int)
(declare-fun x_21 () Int)
(declare-fun x_22 () Int)
(declare-fun x_23 () Int)
(declare-fun x_24 () Int)
(declare-fun x_25 () Int)
(declare-fun x_26 () Int)
(declare-fun x_27 () Int)
(declare-fun x_28 () Int)
(declare-fun x_29 () Int)
(declare-fun x_30 () Int)
(declare-fun x_31 () Int)
(declare-fun x_32 () (Array Int Int))
(declare-fun x_33 () Int)
(declare-fun x_34 () Bool)
(declare-fun x_35 () Int)
(declare-fun x_36 () Int)
(declare-fun x_37 () Int)
(declare-fun x_38 () Int)
(declare-fun x_39 () Int)
(declare-fun x_40 () Int)
(declare-fun x_41 () Int)
(declare-fun x_42 () Int)
(declare-fun x_43 () Int)
(declare-fun x_44 () Int)
(declare-fun x_45 () (Array Int Int))
(declare-fun x_46 () Int)
(declare-fun x_47 () Bool)
(declare-fun x_48 () Int)
(declare-fun x_49 () Int)
(declare-fun x_50 () Int)
(declare-fun x_51 () Int)
(declare-fun x_52 () Int)
(declare-fun x_53 () Int)
(declare-fun x_54 () Int)
(declare-fun x_55 () Int)
(declare-fun x_56 () Int)
(declare-fun x_57 () Int)
(declare-fun x_58 () (Array Int Int))
(declare-fun x_59 () Int)
(declare-fun x_60 () Bool)
(declare-fun x_61 () Int)
(declare-fun x_62 () Int)
(declare-fun x_63 () Int)
(declare-fun x_64 () Int)
(declare-fun x_65 () Int)
(declare-fun x_66 () Int)
(declare-fun x_67 () Int)
(declare-fun x_68 () Int)
(declare-fun x_69 () Int)
(declare-fun x_70 () Int)
(declare-fun x_71 () (Array Int Int))
(declare-fun x_72 () Int)
(declare-fun x_73 () Bool)
(declare-fun x_74 () Int)
(declare-fun x_75 () Int)
(declare-fun x_76 () Int)
(declare-fun x_77 () Int)
(declare-fun x_78 () Int)
(declare-fun x_79 () Int)
(declare-fun x_80 () Int)
(declare-fun x_81 () Int)
(declare-fun x_82 () Int)
(declare-fun x_83 () Int)
(declare-fun x_84 () (Array Int Int))
(declare-fun x_85 () Int)
(declare-fun x_86 () Bool)
(declare-fun x_87 () Int)
(declare-fun x_88 () Int)
(declare-fun x_89 () Int)
(declare-fun x_90 () Int)
(declare-fun x_91 () Int)
(declare-fun x_92 () Int)
(declare-fun x_93 () Int)
(declare-fun x_94 () Int)
(declare-fun x_95 () Int)
(declare-fun x_96 () Int)
(declare-fun x_97 () (Array Int Int))
(declare-fun x_98 () Int)
(declare-fun x_99 () Bool)
(declare-fun x_100 () Int)
(declare-fun x_101 () Int)
(declare-fun x_102 () Int)
(declare-fun x_103 () Int)
(declare-fun x_104 () Int)
(declare-fun x_105 () Int)
(declare-fun x_106 () Int)
(declare-fun x_107 () Int)
(declare-fun x_108 () Int)
(declare-fun x_109 () Int)
(declare-fun x_110 () (Array Int Int))
(declare-fun x_111 () Int)
(declare-fun x_112 () Bool)
(declare-fun x_113 () Int)
(declare-fun x_114 () Int)
(declare-fun x_115 () Int)
(declare-fun x_116 () Int)
(declare-fun x_117 () Int)
(declare-fun x_118 () Int)
(declare-fun x_119 () Int)
(declare-fun x_120 () Int)
(declare-fun x_121 () Int)
(declare-fun x_122 () Int)
(declare-fun x_123 () (Array Int Int))
(declare-fun x_124 () Int)
(declare-fun x_125 () Bool)
(declare-fun x_126 () Int)
(declare-fun x_127 () Int)
(declare-fun x_128 () Int)
(declare-fun x_129 () Int)
(declare-fun x_130 () Int)
(declare-fun x_131 () Int)
(declare-fun x_132 () Int)
(declare-fun x_133 () Int)
(declare-fun x_134 () Int)
(declare-fun x_135 () Int)
(declare-fun x_136 () (Array Int Int))
(declare-fun x_137 () Int)
(declare-fun x_138 () Bool)
(declare-fun x_139 () Int)
(declare-fun x_140 () Int)
(declare-fun x_141 () Int)
(declare-fun x_142 () Int)
(declare-fun x_143 () Int)
(declare-fun x_144 () Int)
(declare-fun x_145 () Int)
(declare-fun x_146 () Int)
(declare-fun x_147 () Int)
(declare-fun x_148 () Int)
(declare-fun x_149 () (Array Int Int))
(declare-fun x_150 () Int)
(declare-fun x_151 () Bool)
(declare-fun x_152 () Int)
(declare-fun x_153 () Int)
(declare-fun x_154 () Int)
(declare-fun x_155 () Int)
(declare-fun x_156 () Int)
(declare-fun x_157 () (Array Int Int))
(declare-fun x_158 () Int)
(declare-fun x_159 () Int)
(declare-fun x_160 () Int)
(declare-fun x_161 () Int)
(declare-fun x_162 () Int)
(declare-fun x_163 () Int)
(declare-fun x_164 () Int)
(declare-fun x_165 () Int)
(declare-fun x_166 () Int)
(declare-fun x_167 () Int)
(declare-fun x_168 () Int)
(declare-fun x_169 () Int)
(declare-fun x_170 () Int)
(declare-fun x_171 () Int)
(declare-fun x_172 () Int)
(declare-fun x_173 () Int)
(declare-fun x_174 () Int)
(declare-fun x_175 () Int)
(declare-fun x_176 () Int)
(declare-fun x_177 () Int)
(declare-fun x_178 () Int)
(declare-fun x_179 () Int)
(declare-fun x_180 () Int)
(declare-fun x_181 () Int)
(declare-fun x_182 () Int)
(declare-fun x_183 () Int)
(declare-fun x_184 () Int)
(declare-fun x_185 () Int)
(declare-fun x_186 () Int)
(declare-fun x_187 () Int)
(declare-fun x_188 () Int)
(declare-fun x_189 () Int)
(declare-fun x_190 () Int)
(declare-fun x_191 () Int)
(declare-fun x_192 () Int)
(declare-fun x_193 () Int)
(declare-fun x_194 () Int)
(declare-fun x_195 () Int)
(declare-fun x_196 () Int)
(declare-fun x_197 () Int)
(declare-fun x_198 () Int)
(declare-fun x_199 () Int)
(declare-fun x_200 () Int)
(declare-fun x_201 () Int)
(declare-fun x_202 () Int)
(declare-fun x_203 () Int)
(declare-fun x_204 () Int)
(declare-fun x_205 () Int)
(declare-fun x_206 () Int)
(declare-fun x_207 () Int)
(declare-fun x_208 () Int)
(declare-fun x_209 () Int)
(declare-fun x_210 () Int)
(declare-fun x_211 () Int)
(declare-fun x_212 () Int)
(declare-fun x_213 () Int)
(declare-fun x_214 () Int)
(declare-fun x_215 () Int)
(declare-fun x_216 () Int)
(declare-fun x_217 () Int)
(declare-fun x_218 () Int)
(declare-fun x_219 () Int)
(declare-fun x_220 () Int)
(declare-fun x_221 () Int)
(declare-fun x_222 () Int)
(declare-fun x_223 () Int)
(declare-fun x_224 () Int)
(declare-fun x_225 () Int)
(declare-fun x_226 () Int)
(declare-fun x_227 () Int)
(declare-fun x_228 () Int)
(declare-fun x_229 () Int)
(assert (let ((?v_53 (= x_16 x_13)) (?v_50 (= x_17 x_14)) (?v_51 (= x_18 x_19)) (?v_54 (= x_20 x_21)) (?v_52 (not (<= x_21 x_14))) (?v_48 (= x_32 x_16)) (?v_45 (= x_33 x_17)) (?v_46 (= x_34 x_18)) (?v_49 (= x_35 x_20)) (?v_47 (not (<= x_20 x_17))) (?v_43 (= x_45 x_32)) (?v_40 (= x_46 x_33)) (?v_41 (= x_47 x_34)) (?v_44 (= x_48 x_35)) (?v_42 (not (<= x_35 x_33))) (?v_38 (= x_58 x_45)) (?v_35 (= x_59 x_46)) (?v_36 (= x_60 x_47)) (?v_39 (= x_61 x_48)) (?v_37 (not (<= x_48 x_46))) (?v_33 (= x_71 x_58)) (?v_30 (= x_72 x_59)) (?v_31 (= x_73 x_60)) (?v_34 (= x_74 x_61)) (?v_32 (not (<= x_61 x_59))) (?v_28 (= x_84 x_71)) (?v_25 (= x_85 x_72)) (?v_26 (= x_86 x_73)) (?v_29 (= x_87 x_74)) (?v_27 (not (<= x_74 x_72))) (?v_23 (= x_97 x_84)) (?v_20 (= x_98 x_85)) (?v_21 (= x_99 x_86)) (?v_24 (= x_100 x_87)) (?v_22 (not (<= x_87 x_85))) (?v_18 (= x_110 x_97)) (?v_15 (= x_111 x_98)) (?v_16 (= x_112 x_99)) (?v_19 (= x_113 x_100)) (?v_17 (not (<= x_100 x_98))) (?v_13 (= x_123 x_110)) (?v_10 (= x_124 x_111)) (?v_11 (= x_125 x_112)) (?v_14 (= x_126 x_113)) (?v_12 (not (<= x_113 x_111))) (?v_8 (= x_136 x_123)) (?v_5 (= x_137 x_124)) (?v_6 (= x_138 x_125)) (?v_9 (= x_139 x_126)) (?v_7 (not (<= x_126 x_124))) (?v_3 (= x_149 x_136)) (?v_0 (= x_150 x_137)) (?v_1 (= x_151 x_138)) (?v_4 (= x_152 x_139)) (?v_2 (not (<= x_139 x_137)))) (and (and (and (and (and (and (and (and (and (and (and (and (and (and (and (and (and (and (and (and (and (and (and (and (and (and (and (and (and (and (and (and (and (and (and (and (and (and (and (and (and (and (and (and (and (and (and (and (and (and (and (and (and (and (and (and (and (and (and (and (and (and (and (and (and (and (and (and (and (and (and (and (and (and (and (and (and (and (and (and (and (and (and (and (and (and (and (and (and (and (and (and (and (and (and (and (and (and (and (and (and (and (and (and (and (and (and (and (and (and (and (and (and (and (not (= x_2 x_1)) (= x_162 (select x_12 x_1))) (= x_163 (select x_12 x_2))) (or (not (= x_162 3)) (not (= x_163 3)))) (= x_164 (select x_11 x_1))) (= x_165 (select x_11 x_2))) (or (not (= x_164 3)) (not (= x_165 3)))) (= x_166 (select x_10 x_1))) (= x_167 (select x_10 x_2))) (or (not (= x_166 3)) (not (= x_167 3)))) (= x_168 (select x_9 x_1))) (= x_169 (select x_9 x_2))) (or (not (= x_168 3)) (not (= x_169 3)))) (= x_170 (select x_8 x_1))) (= x_171 (select x_8 x_2))) (or (not (= x_170 3)) (not (= x_171 3)))) (= x_172 (select x_7 x_1))) (= x_173 (select x_7 x_2))) (or (not (= x_172 3)) (not (= x_173 3)))) (= x_174 (select x_6 x_1))) (= x_175 (select x_6 x_2))) (or (not (= x_174 3)) (not (= x_175 3)))) (= x_176 (select x_5 x_1))) (= x_177 (select x_5 x_2))) (or (not (= x_176 3)) (not (= x_177 3)))) (= x_178 (select x_4 x_1))) (= x_179 (select x_4 x_2))) (or (not (= x_178 3)) (not (= x_179 3)))) (= x_180 (select x_3 x_1))) (= x_181 (select x_3 x_2))) (or (not (= x_180 3)) (not (= x_181 3)))) (= x_182 (select x_0 x_1))) (= x_183 (select x_0 x_2))) (or (not (= x_182 3)) (not (= x_183 3)))) (= x_184 (select x_13 x_14))) (= x_15 x_184)) (= x_185 (select x_16 x_17))) (= x_31 x_185)) (= x_186 (select x_32 x_33))) (= x_44 x_186)) (= x_187 (select x_45 x_46))) (= x_57 x_187)) (= x_188 (select x_58 x_59))) (= x_70 x_188)) (= x_189 (select x_71 x_72))) (= x_83 x_189)) (= x_190 (select x_84 x_85))) (= x_96 x_190)) (= x_191 (select x_97 x_98))) (= x_109 x_191)) (= x_192 (select x_110 x_111))) (= x_122 x_192)) (= x_193 (select x_123 x_124))) (= x_135 x_193)) (= x_194 (select x_136 x_137))) (= x_148 x_194)) (= x_153 (+ x_140 1))) (= x_195 (select x_12 x_155))) (= x_196 (select x_12 x_158))) (= x_197 (select x_12 x_160))) (or (or (or (and (and (and (and (and (and (and (= x_154 0) (= x_152 (+ x_139 1))) ?v_0) ?v_1) (= x_156 x_155)) (= x_195 1)) (= x_157 (store x_12 x_155 2))) (= x_149 (store x_136 x_139 x_155))) (and (and (and (and (and (and (and (and (and (= x_154 1) ?v_2) ?v_0) ?v_1) ?v_3) ?v_4) (= x_159 x_158)) (= x_196 2)) (= x_148 x_158)) (= x_157 (store x_12 x_158 3)))) (and (and (and (and (and (and (and (and (and (= x_154 2) ?v_2) (= x_150 (+ x_137 1))) ?v_1) ?v_3) ?v_4) (= x_161 x_160)) (= x_197 3)) (or (not (<= x_140 12)) (= x_148 x_160))) (= x_157 (store x_12 x_160 1)))) (and (and (and (and (and (= x_154 3) ?v_3) ?v_0) ?v_1) (= x_157 x_12)) ?v_4))) (= x_140 (+ x_127 1))) (= x_198 (select x_11 x_142))) (= x_199 (select x_11 x_144))) (= x_200 (select x_11 x_146))) (or (or (or (and (and (and (and (and (and (and (= x_141 0) (= x_139 (+ x_126 1))) ?v_5) ?v_6) (= x_143 x_142)) (= x_198 1)) (= x_12 (store x_11 x_142 2))) (= x_136 (store x_123 x_126 x_142))) (and (and (and (and (and (and (and (and (and (= x_141 1) ?v_7) ?v_5) ?v_6) ?v_8) ?v_9) (= x_145 x_144)) (= x_199 2)) (= x_135 x_144)) (= x_12 (store x_11 x_144 3)))) (and (and (and (and (and (and (and (and (and (= x_141 2) ?v_7) (= x_137 (+ x_124 1))) ?v_6) ?v_8) ?v_9) (= x_147 x_146)) (= x_200 3)) (or (not (<= x_127 12)) (= x_135 x_146))) (= x_12 (store x_11 x_146 1)))) (and (and (and (and (and (= x_141 3) ?v_8) ?v_5) ?v_6) (= x_12 x_11)) ?v_9))) (= x_127 (+ x_114 1))) (= x_201 (select x_10 x_129))) (= x_202 (select x_10 x_131))) (= x_203 (select x_10 x_133))) (or (or (or (and (and (and (and (and (and (and (= x_128 0) (= x_126 (+ x_113 1))) ?v_10) ?v_11) (= x_130 x_129)) (= x_201 1)) (= x_11 (store x_10 x_129 2))) (= x_123 (store x_110 x_113 x_129))) (and (and (and (and (and (and (and (and (and (= x_128 1) ?v_12) ?v_10) ?v_11) ?v_13) ?v_14) (= x_132 x_131)) (= x_202 2)) (= x_122 x_131)) (= x_11 (store x_10 x_131 3)))) (and (and (and (and (and (and (and (and (and (= x_128 2) ?v_12) (= x_124 (+ x_111 1))) ?v_11) ?v_13) ?v_14) (= x_134 x_133)) (= x_203 3)) (or (not (<= x_114 12)) (= x_122 x_133))) (= x_11 (store x_10 x_133 1)))) (and (and (and (and (and (= x_128 3) ?v_13) ?v_10) ?v_11) (= x_11 x_10)) ?v_14))) (= x_114 (+ x_101 1))) (= x_204 (select x_9 x_116))) (= x_205 (select x_9 x_118))) (= x_206 (select x_9 x_120))) (or (or (or (and (and (and (and (and (and (and (= x_115 0) (= x_113 (+ x_100 1))) ?v_15) ?v_16) (= x_117 x_116)) (= x_204 1)) (= x_10 (store x_9 x_116 2))) (= x_110 (store x_97 x_100 x_116))) (and (and (and (and (and (and (and (and (and (= x_115 1) ?v_17) ?v_15) ?v_16) ?v_18) ?v_19) (= x_119 x_118)) (= x_205 2)) (= x_109 x_118)) (= x_10 (store x_9 x_118 3)))) (and (and (and (and (and (and (and (and (and (= x_115 2) ?v_17) (= x_111 (+ x_98 1))) ?v_16) ?v_18) ?v_19) (= x_121 x_120)) (= x_206 3)) (or (not (<= x_101 12)) (= x_109 x_120))) (= x_10 (store x_9 x_120 1)))) (and (and (and (and (and (= x_115 3) ?v_18) ?v_15) ?v_16) (= x_10 x_9)) ?v_19))) (= x_101 (+ x_88 1))) (= x_207 (select x_8 x_103))) (= x_208 (select x_8 x_105))) (= x_209 (select x_8 x_107))) (or (or (or (and (and (and (and (and (and (and (= x_102 0) (= x_100 (+ x_87 1))) ?v_20) ?v_21) (= x_104 x_103)) (= x_207 1)) (= x_9 (store x_8 x_103 2))) (= x_97 (store x_84 x_87 x_103))) (and (and (and (and (and (and (and (and (and (= x_102 1) ?v_22) ?v_20) ?v_21) ?v_23) ?v_24) (= x_106 x_105)) (= x_208 2)) (= x_96 x_105)) (= x_9 (store x_8 x_105 3)))) (and (and (and (and (and (and (and (and (and (= x_102 2) ?v_22) (= x_98 (+ x_85 1))) ?v_21) ?v_23) ?v_24) (= x_108 x_107)) (= x_209 3)) (or (not (<= x_88 12)) (= x_96 x_107))) (= x_9 (store x_8 x_107 1)))) (and (and (and (and (and (= x_102 3) ?v_23) ?v_20) ?v_21) (= x_9 x_8)) ?v_24))) (= x_88 (+ x_75 1))) (= x_210 (select x_7 x_90))) (= x_211 (select x_7 x_92))) (= x_212 (select x_7 x_94))) (or (or (or (and (and (and (and (and (and (and (= x_89 0) (= x_87 (+ x_74 1))) ?v_25) ?v_26) (= x_91 x_90)) (= x_210 1)) (= x_8 (store x_7 x_90 2))) (= x_84 (store x_71 x_74 x_90))) (and (and (and (and (and (and (and (and (and (= x_89 1) ?v_27) ?v_25) ?v_26) ?v_28) ?v_29) (= x_93 x_92)) (= x_211 2)) (= x_83 x_92)) (= x_8 (store x_7 x_92 3)))) (and (and (and (and (and (and (and (and (and (= x_89 2) ?v_27) (= x_85 (+ x_72 1))) ?v_26) ?v_28) ?v_29) (= x_95 x_94)) (= x_212 3)) (or (not (<= x_75 12)) (= x_83 x_94))) (= x_8 (store x_7 x_94 1)))) (and (and (and (and (and (= x_89 3) ?v_28) ?v_25) ?v_26) (= x_8 x_7)) ?v_29))) (= x_75 (+ x_62 1))) (= x_213 (select x_6 x_77))) (= x_214 (select x_6 x_79))) (= x_215 (select x_6 x_81))) (or (or (or (and (and (and (and (and (and (and (= x_76 0) (= x_74 (+ x_61 1))) ?v_30) ?v_31) (= x_78 x_77)) (= x_213 1)) (= x_7 (store x_6 x_77 2))) (= x_71 (store x_58 x_61 x_77))) (and (and (and (and (and (and (and (and (and (= x_76 1) ?v_32) ?v_30) ?v_31) ?v_33) ?v_34) (= x_80 x_79)) (= x_214 2)) (= x_70 x_79)) (= x_7 (store x_6 x_79 3)))) (and (and (and (and (and (and (and (and (and (= x_76 2) ?v_32) (= x_72 (+ x_59 1))) ?v_31) ?v_33) ?v_34) (= x_82 x_81)) (= x_215 3)) (or (not (<= x_62 12)) (= x_70 x_81))) (= x_7 (store x_6 x_81 1)))) (and (and (and (and (and (= x_76 3) ?v_33) ?v_30) ?v_31) (= x_7 x_6)) ?v_34))) (= x_62 (+ x_49 1))) (= x_216 (select x_5 x_64))) (= x_217 (select x_5 x_66))) (= x_218 (select x_5 x_68))) (or (or (or (and (and (and (and (and (and (and (= x_63 0) (= x_61 (+ x_48 1))) ?v_35) ?v_36) (= x_65 x_64)) (= x_216 1)) (= x_6 (store x_5 x_64 2))) (= x_58 (store x_45 x_48 x_64))) (and (and (and (and (and (and (and (and (and (= x_63 1) ?v_37) ?v_35) ?v_36) ?v_38) ?v_39) (= x_67 x_66)) (= x_217 2)) (= x_57 x_66)) (= x_6 (store x_5 x_66 3)))) (and (and (and (and (and (and (and (and (and (= x_63 2) ?v_37) (= x_59 (+ x_46 1))) ?v_36) ?v_38) ?v_39) (= x_69 x_68)) (= x_218 3)) (or (not (<= x_49 12)) (= x_57 x_68))) (= x_6 (store x_5 x_68 1)))) (and (and (and (and (and (= x_63 3) ?v_38) ?v_35) ?v_36) (= x_6 x_5)) ?v_39))) (= x_49 (+ x_36 1))) (= x_219 (select x_4 x_51))) (= x_220 (select x_4 x_53))) (= x_221 (select x_4 x_55))) (or (or (or (and (and (and (and (and (and (and (= x_50 0) (= x_48 (+ x_35 1))) ?v_40) ?v_41) (= x_52 x_51)) (= x_219 1)) (= x_5 (store x_4 x_51 2))) (= x_45 (store x_32 x_35 x_51))) (and (and (and (and (and (and (and (and (and (= x_50 1) ?v_42) ?v_40) ?v_41) ?v_43) ?v_44) (= x_54 x_53)) (= x_220 2)) (= x_44 x_53)) (= x_5 (store x_4 x_53 3)))) (and (and (and (and (and (and (and (and (and (= x_50 2) ?v_42) (= x_46 (+ x_33 1))) ?v_41) ?v_43) ?v_44) (= x_56 x_55)) (= x_221 3)) (or (not (<= x_36 12)) (= x_44 x_55))) (= x_5 (store x_4 x_55 1)))) (and (and (and (and (and (= x_50 3) ?v_43) ?v_40) ?v_41) (= x_5 x_4)) ?v_44))) (= x_36 (+ x_22 1))) (= x_222 (select x_3 x_38))) (= x_223 (select x_3 x_40))) (= x_224 (select x_3 x_42))) (or (or (or (and (and (and (and (and (and (and (= x_37 0) (= x_35 (+ x_20 1))) ?v_45) ?v_46) (= x_39 x_38)) (= x_222 1)) (= x_4 (store x_3 x_38 2))) (= x_32 (store x_16 x_20 x_38))) (and (and (and (and (and (and (and (and (and (= x_37 1) ?v_47) ?v_45) ?v_46) ?v_48) ?v_49) (= x_41 x_40)) (= x_223 2)) (= x_31 x_40)) (= x_4 (store x_3 x_40 3)))) (and (and (and (and (and (and (and (and (and (= x_37 2) ?v_47) (= x_33 (+ x_17 1))) ?v_46) ?v_48) ?v_49) (= x_43 x_42)) (= x_224 3)) (or (not (<= x_22 12)) (= x_31 x_42))) (= x_4 (store x_3 x_42 1)))) (and (and (and (and (and (= x_37 3) ?v_48) ?v_45) ?v_46) (= x_4 x_3)) ?v_49))) (= x_22 (+ x_23 1))) (= x_225 (select x_0 x_25))) (= x_226 (select x_0 x_27))) (= x_227 (select x_0 x_29))) (or (or (or (and (and (and (and (and (and (and (= x_24 0) (= x_20 (+ x_21 1))) ?v_50) ?v_51) (= x_26 x_25)) (= x_225 1)) (= x_3 (store x_0 x_25 2))) (= x_16 (store x_13 x_21 x_25))) (and (and (and (and (and (and (and (and (and (= x_24 1) ?v_52) ?v_50) ?v_51) ?v_53) ?v_54) (= x_28 x_27)) (= x_226 2)) (= x_15 x_27)) (= x_3 (store x_0 x_27 3)))) (and (and (and (and (and (and (and (and (and (= x_24 2) ?v_52) (= x_17 (+ x_14 1))) ?v_51) ?v_53) ?v_54) (= x_30 x_29)) (= x_227 3)) (or (not (<= x_23 12)) (= x_15 x_29))) (= x_3 (store x_0 x_29 1)))) (and (and (and (and (and (= x_24 3) ?v_53) ?v_50) ?v_51) (= x_3 x_0)) ?v_54))) (= x_228 (select x_157 x_1))) (= x_228 3)) (= x_229 (select x_157 x_2))) (= x_229 3))))
; --- Injected Array Sum Constraint ---
(assert (sum x_9 (+ x_108 (+ x_143 x_75))))
(check-sat)
(exit)